c ENC2
p cnf 39 72
c weights 0.45 0.55 0.0 1.0 0.95 0.050000000000000044 0.225 0.775 0.0 1.0 0.9999 9.999999999998899e-05 0.0 1.0 1 1 1 1 0.0 1.0 1 1 1 1 0.9 0.09999999999999998 0.45 0.55 0.45 0.55 0.0 1.0 0.45 0.55 0.45 0.55 0.0 1.0 0.9 0.09999999999999998 0.45 0.55 0.225 0.775 0.225 0.775 0.0 1.0 0.45 0.55 0.0 1.0 1 1 1 1 0.99 0.010000000000000009 1 1 1 1 1 1 1 1 1 1 0.0 1.0 0.45 0.55 1 1 0.9 0.09999999999999998 0.45 0.55
37 34 0
8 9 0
32 33 0
28 27 0
11 12 0
31 30 0
-37 -34 0
-8 -9 0
-32 -33 0
-28 -27 0
-11 -12 0
-31 -30 0
-3 37 0
3 34 0
-3 37 0
3 34 0
-29 8 0
29 9 0
-3 37 0
3 34 0
-29 8 0
29 9 0
-6 32 0
6 33 0
-37 -8 -32 -20 28 0
-37 -8 -32 20 27 0
-37 -8 -33 -10 28 0
-37 -8 -33 10 27 0
-37 -9 -32 -19 28 0
-37 -9 -32 19 27 0
-37 -9 -33 -21 28 0
-37 -9 -33 21 27 0
-34 -8 -32 -7 28 0
-34 -8 -32 7 27 0
-34 -8 -33 -17 28 0
-34 -8 -33 17 27 0
-34 -9 -32 -18 28 0
-34 -9 -32 18 27 0
-34 -9 -33 -22 28 0
-34 -9 -33 22 27 0
-37 -8 -32 -38 11 0
-37 -8 -32 38 12 0
-37 -8 -33 -26 11 0
-37 -8 -33 26 12 0
-37 -9 -32 -35 11 0
-37 -9 -32 35 12 0
-37 -9 -33 -1 11 0
-37 -9 -33 1 12 0
-34 -8 -32 -24 11 0
-34 -8 -32 24 12 0
-34 -8 -33 -39 11 0
-34 -8 -33 39 12 0
-34 -9 -32 -36 11 0
-34 -9 -32 36 12 0
-34 -9 -33 -4 11 0
-34 -9 -33 4 12 0
-37 -8 -32 -13 31 0
-37 -8 -32 13 30 0
-37 -8 -33 -5 31 0
-37 -8 -33 5 30 0
-37 -9 -32 -16 31 0
-37 -9 -32 16 30 0
-37 -9 -33 -25 31 0
-37 -9 -33 25 30 0
-34 -8 -32 -2 31 0
-34 -8 -32 2 30 0
-34 -8 -33 -14 31 0
-34 -8 -33 14 30 0
-34 -9 -32 -15 31 0
-34 -9 -32 15 30 0
-34 -9 -33 -23 31 0
-34 -9 -33 23 30 0
